NAME: random-31-28831
TYPE: TSP
COMMENT: size=31 seed=28831
DIMENSION: 64
EDGE_WEIGHT_TYPE: EUC_2D
NODE_COORD_SECTION
+0 617 495
-0 617 495
+1 910 168
-1 732 534
+2 165 823
-2 408 290
+3 673 490
-3 170 656
+4 934 812
-4 102 803
+5 501 839
-5 119 692
+6 795 746
-6 72 127
+7 625 633
-7 92 228
+8 270 781
-8 123 462
+9 916 43
-9 65 400
+10 643 863
-10 338 376
+11 434 630
-11 598 239
+12 500 113
-12 425 12
+13 163 989
-13 129 590
+14 222 516
-14 619 731
+15 928 831
-15 624 838
+16 716 916
-16 456 143
+17 840 801
-17 193 686
+18 449 941
-18 184 104
+19 890 795
-19 290 304
+20 263 856
-20 20 675
+21 923 995
-21 33 366
+22 476 792
-22 447 556
+23 15 636
-23 738 16
+24 636 180
-24 670 192
+25 654 377
-25 641 841
+26 990 291
-26 389 963
+27 338 187
-27 111 583
+28 212 465
-28 980 66
+29 920 518
-29 973 652
+30 979 215
-30 972 880
+31 467 200
-31 23 778
PRECEDENCE_SECTION
+0 -0
+1 -1
+2 -2
+3 -3
+4 -4
+5 -5
+6 -6
+7 -7
+8 -8
+9 -9
+10 -10
+11 -11
+12 -12
+13 -13
+14 -14
+15 -15
+16 -16
+17 -17
+18 -18
+19 -19
+20 -20
+21 -21
+22 -22
+23 -23
+24 -24
+25 -25
+26 -26
+27 -27
+28 -28
+29 -29
+30 -30
+31 -31
EOF
